NAME: U20
TYPE: TSP
COMMENT: Made by 20231393
DIMENSION: 20
EDGE_WEIGHT_TYPE: EUC_2D
NODE_COORD_SECTION
1  1   7
2  16  13
3  16  10
4  1   16
5  1   1
6  1   4
7  10  1
8  1   13
9  16  1
10 7   16
11 16  16
12 16  4
13 13  16
14 1   10
15 13  1
16 16  7
17 10  16
18 4   1
19 4   16
20 7   1
EOF